50
215
192
211
242
217
243
167
221
252
191
242
228
185
170
221
217
198
181
209
147
231
213
162
154
159
173
244
177
253
222
162
166
172
218
195
172
217
164
156
178
145
184
186
249
222
241
237
187
189
188
